WARNING: for repeatability, setting FPU to use double precision
============================[ Problem Statistics ]=============================
|                                                                             |
|  Number of variables:            50                                         |
|  Number of clauses:             218                                         |
|  Parse time:                   0.00 s                                       |
|                                                                             |
============================[ Search Statistics ]==============================
| Conflicts |          ORIGINAL         |          LEARNT          | Progress |
|           |    Vars  Clauses Literals |    Limit  Clauses Lit/Cl |          |
===============================================================================
===============================================================================
restarts              : 1
conflicts             : 77             (51299 /sec)
decisions             : 98             (0.00 % random) (65290 /sec)
propagations          : 1044           (695536 /sec)
conflict literals     : 277            (15.03 % deleted)
Memory used           : 20.00 MB
CPU time              : 0.001501 s

UNSATISFIABLE
